-60.0% N(Distort)=1 ~[0.4,0.3,0.5]      
   1.0000000000000000     
    16.8565235137999991    0.0000000000000000    0.0000000000000000
     0.0000000000000000   17.9457893372000008    0.0000000000000000
     0.0000000000000000    0.0000000000000000   24.9491386414000011
  Cs              Pb              I             
    32    32    95
Direct
     0.4888985131148016    0.2069380880694783    0.1226198720221635
     0.4830375296252077    0.2143136589346445    0.6257471106447631
     0.4874931787161899    0.7095737163892075    0.1235599576935644
     0.4864050695794231    0.7047520587208270    0.6242866858247630
     0.9868309413607457    0.2086340274073451    0.1239127815764110
     0.9959196070049471    0.2132469042655752    0.6240557437839418
     0.9846356130754220    0.7110780592194385    0.1243666205744472
     0.9853861154459744    0.7123868130355481    0.6225444547156030
     0.0155195655868199    0.2894063325397099    0.3758958429338980
     0.0156435587452639    0.2918637614401345    0.8734988426341682
     0.0140049428804659    0.7939186876417915    0.3740362703956221
     0.0185032059606618    0.7921917648112846    0.8736409382143263
     0.5280092489155955    0.2856131789661119    0.3662779170749051
     0.5175038869285591    0.2911997133710192    0.8757010925337200
     0.5198250027214403    0.7893242796744906    0.3764139479353183
     0.5155996577140571    0.7915119107777778    0.8730615673861057
     0.2436843758473360    0.0427660759579032    0.3738135254221532
     0.2347575630434730    0.0415385957780557    0.8748859031900167
     0.2329319641194308    0.5435602678186803    0.3733504295076127
     0.2377906234189489    0.5412214948062926    0.8753341587635083
     0.7384184385674217    0.0393700811525415    0.3749551400203630
     0.7409912384289807    0.0407621585995336    0.8734536011264241
     0.7387146834583164    0.5368779268930348    0.3756975327163195
     0.7350810596209271    0.5420529739350359    0.8740969698323731
     0.2633632414279499    0.4600489659175490    0.1240030011620047
     0.2608157287933912    0.4702836814788668    0.6313125606588116
     0.2681012320678008    0.9591515610676488    0.1254953376186823
     0.2678629733988018    0.9599047565964016    0.6234852020893900
     0.7720469658734178    0.4588886598553297    0.1240355996769691
     0.7562278373968601    0.4620786543668514    0.6233613171274113
     0.7663174601322074    0.9593575662912911    0.1244512500224673
     0.7655761157372778    0.9611657621278042    0.6236009787761588
     0.0050767438286094    0.0004228182738184    0.2496503311506898
     0.0018629207955435    0.0019949105889802    0.7484536674917734
     0.0029844763918886    0.5004731453573461    0.2495797569007760
     0.9987990393269168    0.5020488063143288    0.7495637736134076
     0.5022888657178700    0.9974516532078953    0.2484448761927180
     0.5007845509349514    0.0015398666313320    0.7494556837169765
     0.5026934417308306    0.4998386395658057    0.2476881743678334
     0.5022363315305813    0.5009466168171923    0.7505354681513096
     0.2542022801921072    0.2511863455367256    0.2494661139070811
     0.2516470203120547    0.2517288947248819    0.7512339178761661
     0.2519232744781487    0.7495768064893892    0.2494931671405220
     0.2510219349097697    0.7532654962438897    0.7493943757179581
     0.7547318568425865    0.2494404798645349    0.2477799632129908
     0.7512869045274021    0.2509035813374225    0.7480346335825645
     0.7519358057928780    0.7492104813078281    0.2494155119734051
     0.7525616150026447    0.7524502323489185    0.7495259694744842
     0.0020637968956279    0.0008861890444354    0.9999073270227213
     0.0041539234209011    0.0008882829865943    0.4991608262792787
     0.0008922840346826    0.5009734313428384    0.9989486703266455
     0.0015908290654403    0.5020841073776983    0.4998447404952222
     0.5008640253203532    0.0002077318266062    0.9985925523528435
     0.5021280049012673    0.0007692964438863    0.5000843769549910
     0.5023621335270795    0.5006326963148837    0.0004623954777905
     0.4950672282592906    0.5003762760171132    0.4955386680008706
     0.2513547667584856    0.2505477813746328    0.0004822482789178
     0.2541220324197910    0.2537689886547704    0.4974882359411332
     0.2511823258512350    0.7505047555673240    0.9999538535847403
     0.2514607390961592    0.7518718518492412    0.4987683182476574
     0.7524528655515226    0.2507736339189365    0.9984816565160418
     0.7529360344330355    0.2499960676951119    0.4999762887012412
     0.7511068867810859    0.7510017600553096    0.9990633439693969
     0.7509930826248431    0.7500980628653219    0.4999050595321011
     0.0978042906329667    0.1542377940534614    0.2706310758320769
     0.0945942623610794    0.1556427248343659    0.7672088349533841
     0.0929939735551105    0.6554562038048501    0.2691644173374911
     0.0946358846583595    0.6546467311969612    0.7673412162937016
     0.5996330252353664    0.1488484521976602    0.2639636965539142
     0.5937027325694038    0.1548456633697208    0.7690181334675568
     0.5952177422205041    0.6525932962891873    0.2706312431087649
     0.5952541893616318    0.6551651386450531    0.7667439954567791
     0.4104033633393459    0.3469077032226846    0.2253524172228436
     0.4087776809040055    0.3476062634380898    0.7350625530937384
     0.4104380295560876    0.8436880325256199    0.2304356227459762
     0.4094524644394932    0.8473190192655499    0.7275510000928356
     0.9117574294210664    0.3453853843073519    0.2305531468999353
     0.9075147382032958    0.3482655858403305    0.7271401669632916
     0.9093176941196645    0.8474638978542262    0.2315855891611698
     0.9092481357743792    0.8485017630908487    0.7286544758209081
     0.3466915640836872    0.0972050080245051    0.2299553434264086
     0.3437316893732925    0.0982207583146831    0.7291958364840904
     0.3449608639183434    0.5957932276551261    0.2292912764511937
     0.3463429071308670    0.6003369310326893    0.7343039724783715
     0.8466679448471927    0.0954231343658508    0.2298094892956804
     0.8455569619586745    0.0990776468645189    0.7274467637206867
     0.8450088633552567    0.5953766284473379    0.2308101791302879
     0.8422514132868594    0.5973232668597822    0.7281694087062941
     0.1598006408051981    0.4033640242795952    0.2697209501972792
     0.1564856520820045    0.4049489280101364    0.7697401156828246
     0.1617188529977217    0.9041971607532382    0.2710757600417603
     0.1596327541134522    0.9070100855726184    0.7675650912612757
     0.6612830722917475    0.4038306420126078    0.2669709133005494
     0.6596992614386425    0.4057007697785401    0.7675867585273748
     0.6602757133698030    0.9031067989535674    0.2683097590406733
     0.6586777923433580    0.9056050214510608    0.7682791085182713
     0.4088066888331927    0.3477797049584276    0.0205770925064871
     0.4087096899539479    0.8468086720367948    0.0187887791254680
     0.4100130590083843    0.8465688996899495    0.5203540489416695
     0.9104456690048276    0.3459494123167257    0.0177420083036406
     0.9085240987798556    0.3485567018704080    0.5197111645726858
     0.9087375392659740    0.8478114639787399    0.0185446992103552
     0.9058369163007697    0.8504156692186176    0.5159716978146511
     0.1060262391428483    0.1562516447903912    0.4813564337036484
     0.0940450683773312    0.1555093136754238    0.9801253921539285
     0.0927352561294022    0.6572158534289979    0.4795690508957697
     0.0940355088337417    0.6545059384203649    0.9797630545484396
     0.5937810565096103    0.1558137690243092    0.4804865995313934
     0.5950448481378507    0.1537740075211595    0.9800230750809581
     0.5934198692674982    0.6451568336916892    0.4830430059513193
     0.5943086008659809    0.6550237459032011    0.9791307216007826
     0.1628976315671727    0.4072360852579651    0.4819736274247369
     0.1580343241815368    0.4038939171840016    0.9796957928030543
     0.1613573771056765    0.9062772119091058    0.4784619870038911
     0.1591636724430761    0.9044815300981011    0.9809016682960746
     0.6500511987872500    0.3991342569264995    0.4799134396202005
     0.6604569767129624    0.4052775754546081    0.9801947719705255
     0.6587410581425484    0.9039885298791182    0.4812054849707054
     0.6584574997371261    0.9045218881373356    0.9785018612694206
     0.3431193061939006    0.0963182560741026    0.0193068857515619
     0.3469632985207457    0.1001642181498698    0.5196912327427535
     0.3446112971133811    0.5969094499146229    0.0195692782472462
     0.3395332284222671    0.5948998166592340    0.5180442897745278
     0.8440330353238527    0.0964003199000331    0.0187060135531551
     0.8477088172261696    0.0988058219437640    0.5194259207509181
     0.8436790879301469    0.5972802128989990    0.0185347732333254
     0.8431180556875441    0.5953274092210752    0.5187151058742940
     0.4547081323436989    0.4888001562208829    0.3723083792883539
     0.4639157187716273    0.5006762676190456    0.8750170417416722
     0.4665789626503178    0.9986510109227316    0.3743125351584788
     0.4586319619084889    0.9991738669629393    0.8739812383215251
     0.9640149349373638    0.4989261451588613    0.3747609655124078
     0.9590291497266232    0.5000708766447595    0.8742084283513805
     0.9641032164567317    0.0050036537260021    0.3743775517650801
     0.9656223303288326    0.0015141902396218    0.8740660572776197
     0.0438962822236947    0.0015829149305946    0.1245195039896715
     0.0439309409921454    0.0030930009544565    0.6239456065274150
     0.0397808576705770    0.5028136836263949    0.1241991685678299
     0.0395458417870935    0.5037746843292282    0.6245532232080272
     0.5410985656643247    0.9972278260415579    0.1236062276177999
     0.5427158769332771    0.0072042435299368    0.6246541304030454
     0.5486687333847102    0.5037438433602159    0.1241440544180007
     0.5236109862486696    0.4877014810449364    0.6221942277767626
     0.2103945546852201    0.2510640582261830    0.1253599247907776
     0.2235446325723636    0.2598369679313630    0.6239216854413703
     0.2100955566983943    0.7514644462993394    0.1248467358176989
     0.2113405023165199    0.7505952453824959    0.6241519788523386
     0.7130701587852465    0.2517337885772583    0.1235411545655228
     0.7067681770291533    0.2522834273295087    0.6239496770267616
     0.7116927702149963    0.7505511179978963    0.1243881147965668
     0.7102893634204824    0.7519890791741467    0.6244225861588848
     0.3028134438034525    0.2528313500644374    0.3748610995730273
     0.2925694053396270    0.2488617445411041    0.8754773668569311
     0.2952950802030703    0.7493472990838087    0.3745300614057215
     0.2898195304351844    0.7514012159659272    0.8746431100421609
     0.7894935803127132    0.2497898251782856    0.3742836442803424
     0.7912384375739877    0.2502105445477215    0.8732460220438942
     0.7892131283958618    0.7470861119990687    0.3747669461110184
     0.7937465233000902    0.7499242573390438    0.8742914797963688

  0.00000000E+00  0.00000000E+00  0.00000000E+00
  0.00000000E+00  0.00000000E+00  0.00000000E+00
  0.00000000E+00  0.00000000E+00  0.00000000E+00
  0.00000000E+00  0.00000000E+00  0.00000000E+00
  0.00000000E+00  0.00000000E+00  0.00000000E+00
  0.00000000E+00  0.00000000E+00  0.00000000E+00
  0.00000000E+00  0.00000000E+00  0.00000000E+00
  0.00000000E+00  0.00000000E+00  0.00000000E+00
  0.00000000E+00  0.00000000E+00  0.00000000E+00
  0.00000000E+00  0.00000000E+00  0.00000000E+00
  0.00000000E+00  0.00000000E+00  0.00000000E+00
  0.00000000E+00  0.00000000E+00  0.00000000E+00
  0.00000000E+00  0.00000000E+00  0.00000000E+00
  0.00000000E+00  0.00000000E+00  0.00000000E+00
  0.00000000E+00  0.00000000E+00  0.00000000E+00
  0.00000000E+00  0.00000000E+00  0.00000000E+00
  0.00000000E+00  0.00000000E+00  0.00000000E+00
  0.00000000E+00  0.00000000E+00  0.00000000E+00
  0.00000000E+00  0.00000000E+00  0.00000000E+00
  0.00000000E+00  0.00000000E+00  0.00000000E+00
  0.00000000E+00  0.00000000E+00  0.00000000E+00
  0.00000000E+00  0.00000000E+00  0.00000000E+00
  0.00000000E+00  0.00000000E+00  0.00000000E+00
  0.00000000E+00  0.00000000E+00  0.00000000E+00
  0.00000000E+00  0.00000000E+00  0.00000000E+00
  0.00000000E+00  0.00000000E+00  0.00000000E+00
  0.00000000E+00  0.00000000E+00  0.00000000E+00
  0.00000000E+00  0.00000000E+00  0.00000000E+00
  0.00000000E+00  0.00000000E+00  0.00000000E+00
  0.00000000E+00  0.00000000E+00  0.00000000E+00
  0.00000000E+00  0.00000000E+00  0.00000000E+00
  0.00000000E+00  0.00000000E+00  0.00000000E+00
  0.00000000E+00  0.00000000E+00  0.00000000E+00
  0.00000000E+00  0.00000000E+00  0.00000000E+00
  0.00000000E+00  0.00000000E+00  0.00000000E+00
  0.00000000E+00  0.00000000E+00  0.00000000E+00
  0.00000000E+00  0.00000000E+00  0.00000000E+00
  0.00000000E+00  0.00000000E+00  0.00000000E+00
  0.00000000E+00  0.00000000E+00  0.00000000E+00
  0.00000000E+00  0.00000000E+00  0.00000000E+00
  0.00000000E+00  0.00000000E+00  0.00000000E+00
  0.00000000E+00  0.00000000E+00  0.00000000E+00
  0.00000000E+00  0.00000000E+00  0.00000000E+00
  0.00000000E+00  0.00000000E+00  0.00000000E+00
  0.00000000E+00  0.00000000E+00  0.00000000E+00
  0.00000000E+00  0.00000000E+00  0.00000000E+00
  0.00000000E+00  0.00000000E+00  0.00000000E+00
  0.00000000E+00  0.00000000E+00  0.00000000E+00
  0.00000000E+00  0.00000000E+00  0.00000000E+00
  0.00000000E+00  0.00000000E+00  0.00000000E+00
  0.00000000E+00  0.00000000E+00  0.00000000E+00
  0.00000000E+00  0.00000000E+00  0.00000000E+00
  0.00000000E+00  0.00000000E+00  0.00000000E+00
  0.00000000E+00  0.00000000E+00  0.00000000E+00
  0.00000000E+00  0.00000000E+00  0.00000000E+00
  0.00000000E+00  0.00000000E+00  0.00000000E+00
  0.00000000E+00  0.00000000E+00  0.00000000E+00
  0.00000000E+00  0.00000000E+00  0.00000000E+00
  0.00000000E+00  0.00000000E+00  0.00000000E+00
  0.00000000E+00  0.00000000E+00  0.00000000E+00
  0.00000000E+00  0.00000000E+00  0.00000000E+00
  0.00000000E+00  0.00000000E+00  0.00000000E+00
  0.00000000E+00  0.00000000E+00  0.00000000E+00
  0.00000000E+00  0.00000000E+00  0.00000000E+00
  0.00000000E+00  0.00000000E+00  0.00000000E+00
  0.00000000E+00  0.00000000E+00  0.00000000E+00
  0.00000000E+00  0.00000000E+00  0.00000000E+00
  0.00000000E+00  0.00000000E+00  0.00000000E+00
  0.00000000E+00  0.00000000E+00  0.00000000E+00
  0.00000000E+00  0.00000000E+00  0.00000000E+00
  0.00000000E+00  0.00000000E+00  0.00000000E+00
  0.00000000E+00  0.00000000E+00  0.00000000E+00
  0.00000000E+00  0.00000000E+00  0.00000000E+00
  0.00000000E+00  0.00000000E+00  0.00000000E+00
  0.00000000E+00  0.00000000E+00  0.00000000E+00
  0.00000000E+00  0.00000000E+00  0.00000000E+00
  0.00000000E+00  0.00000000E+00  0.00000000E+00
  0.00000000E+00  0.00000000E+00  0.00000000E+00
  0.00000000E+00  0.00000000E+00  0.00000000E+00
  0.00000000E+00  0.00000000E+00  0.00000000E+00
  0.00000000E+00  0.00000000E+00  0.00000000E+00
  0.00000000E+00  0.00000000E+00  0.00000000E+00
  0.00000000E+00  0.00000000E+00  0.00000000E+00
  0.00000000E+00  0.00000000E+00  0.00000000E+00
  0.00000000E+00  0.00000000E+00  0.00000000E+00
  0.00000000E+00  0.00000000E+00  0.00000000E+00
  0.00000000E+00  0.00000000E+00  0.00000000E+00
  0.00000000E+00  0.00000000E+00  0.00000000E+00
  0.00000000E+00  0.00000000E+00  0.00000000E+00
  0.00000000E+00  0.00000000E+00  0.00000000E+00
  0.00000000E+00  0.00000000E+00  0.00000000E+00
  0.00000000E+00  0.00000000E+00  0.00000000E+00
  0.00000000E+00  0.00000000E+00  0.00000000E+00
  0.00000000E+00  0.00000000E+00  0.00000000E+00
  0.00000000E+00  0.00000000E+00  0.00000000E+00
  0.00000000E+00  0.00000000E+00  0.00000000E+00
  0.00000000E+00  0.00000000E+00  0.00000000E+00
  0.00000000E+00  0.00000000E+00  0.00000000E+00
  0.00000000E+00  0.00000000E+00  0.00000000E+00
  0.00000000E+00  0.00000000E+00  0.00000000E+00
  0.00000000E+00  0.00000000E+00  0.00000000E+00
  0.00000000E+00  0.00000000E+00  0.00000000E+00
  0.00000000E+00  0.00000000E+00  0.00000000E+00
  0.00000000E+00  0.00000000E+00  0.00000000E+00
  0.00000000E+00  0.00000000E+00  0.00000000E+00
  0.00000000E+00  0.00000000E+00  0.00000000E+00
  0.00000000E+00  0.00000000E+00  0.00000000E+00
  0.00000000E+00  0.00000000E+00  0.00000000E+00
  0.00000000E+00  0.00000000E+00  0.00000000E+00
  0.00000000E+00  0.00000000E+00  0.00000000E+00
  0.00000000E+00  0.00000000E+00  0.00000000E+00
  0.00000000E+00  0.00000000E+00  0.00000000E+00
  0.00000000E+00  0.00000000E+00  0.00000000E+00
  0.00000000E+00  0.00000000E+00  0.00000000E+00
  0.00000000E+00  0.00000000E+00  0.00000000E+00
  0.00000000E+00  0.00000000E+00  0.00000000E+00
  0.00000000E+00  0.00000000E+00  0.00000000E+00
  0.00000000E+00  0.00000000E+00  0.00000000E+00
  0.00000000E+00  0.00000000E+00  0.00000000E+00
  0.00000000E+00  0.00000000E+00  0.00000000E+00
  0.00000000E+00  0.00000000E+00  0.00000000E+00
  0.00000000E+00  0.00000000E+00  0.00000000E+00
  0.00000000E+00  0.00000000E+00  0.00000000E+00
  0.00000000E+00  0.00000000E+00  0.00000000E+00
  0.00000000E+00  0.00000000E+00  0.00000000E+00
  0.00000000E+00  0.00000000E+00  0.00000000E+00
  0.00000000E+00  0.00000000E+00  0.00000000E+00
  0.00000000E+00  0.00000000E+00  0.00000000E+00
  0.00000000E+00  0.00000000E+00  0.00000000E+00
  0.00000000E+00  0.00000000E+00  0.00000000E+00
  0.00000000E+00  0.00000000E+00  0.00000000E+00
  0.00000000E+00  0.00000000E+00  0.00000000E+00
  0.00000000E+00  0.00000000E+00  0.00000000E+00
  0.00000000E+00  0.00000000E+00  0.00000000E+00
  0.00000000E+00  0.00000000E+00  0.00000000E+00
  0.00000000E+00  0.00000000E+00  0.00000000E+00
  0.00000000E+00  0.00000000E+00  0.00000000E+00
  0.00000000E+00  0.00000000E+00  0.00000000E+00
  0.00000000E+00  0.00000000E+00  0.00000000E+00
  0.00000000E+00  0.00000000E+00  0.00000000E+00
  0.00000000E+00  0.00000000E+00  0.00000000E+00
  0.00000000E+00  0.00000000E+00  0.00000000E+00
  0.00000000E+00  0.00000000E+00  0.00000000E+00
  0.00000000E+00  0.00000000E+00  0.00000000E+00
  0.00000000E+00  0.00000000E+00  0.00000000E+00
  0.00000000E+00  0.00000000E+00  0.00000000E+00
  0.00000000E+00  0.00000000E+00  0.00000000E+00
  0.00000000E+00  0.00000000E+00  0.00000000E+00
  0.00000000E+00  0.00000000E+00  0.00000000E+00
  0.00000000E+00  0.00000000E+00  0.00000000E+00
  0.00000000E+00  0.00000000E+00  0.00000000E+00
  0.00000000E+00  0.00000000E+00  0.00000000E+00
  0.00000000E+00  0.00000000E+00  0.00000000E+00
  0.00000000E+00  0.00000000E+00  0.00000000E+00
  0.00000000E+00  0.00000000E+00  0.00000000E+00
  0.00000000E+00  0.00000000E+00  0.00000000E+00
  0.00000000E+00  0.00000000E+00  0.00000000E+00
  0.00000000E+00  0.00000000E+00  0.00000000E+00
  0.00000000E+00  0.00000000E+00  0.00000000E+00
