-20.0% N(Distort)=1 ~[0.3,0.4,0.6]      
   1.00000000000000     
    17.3024749755999991    0.0000000000000000    0.0000000000000000
     0.0000000000000000   17.3024749755999991    0.0000000000000000
     0.0000000000000000    0.0000000000000000   12.8121118545999995
  Cs              Pb              I             
    16    16    49
Direct
     0.2400761886840335    0.0084275402494537    0.2470743978698342
     0.2526704369362960    0.9860325477435002    0.7425427991766657
     0.2518245647116558    0.5478603728026403    0.2344859131810430
     0.2069905313430937    0.4655995375521341    0.7580622980224342
     0.7609515000418893    0.0277258943192281    0.2499537894631632
     0.7421029252424606    0.9632245472336574    0.7458312600849628
     0.7616589909989225    0.5316288404854058    0.2545133695882961
     0.7470712231225091    0.4891172872048785    0.7446699340913305
     0.9930677864232007    0.2805854025914717    0.2480368210177263
     0.0089793662766333    0.2226174170850187    0.7463335227100513
     0.9852722589394756    0.7875334941855130    0.2502913946793571
     0.0046626785568941    0.7320440316913306    0.7513744136216625
     0.5070686809066625    0.2757899674949977    0.2438899335205490
     0.5302996942391550    0.2135329099107238    0.7447983323272768
     0.5107595676140281    0.7664381150920422    0.2546088614999567
     0.4784717906374001    0.7560326149037586    0.7463834261681105
     0.9974947286839227    0.0066395272507500    0.9955595898947683
     0.9987485813547274    0.0030543653089899    0.4990042471359402
     0.9985168607104671    0.5024804902235547    0.9997278966230767
     0.0039132291941205    0.5033046101973986    0.4973056487037437
     0.5040221989102436    0.0032919070703764    0.9995697670714887
     0.5042288044159129    0.0033616273151691    0.4946621771025975
     0.4990751695256766    0.5048620970831542    0.0080527770112842
     0.4840866008600994    0.4893002132446236    0.5034599522111400
     0.2538153340849174    0.2519734530830320    0.0001081101543696
     0.2551759061945122    0.2523718203770199    0.4862170218854208
     0.2479707006096635    0.7591234967131838    0.9999769742572328
     0.2492643576123109    0.7538079144478042    0.4968680809939975
     0.7493336069594526    0.2553980367662502    0.9959000822528475
     0.7534553940205552    0.2537227876609804    0.4986038270630566
     0.7503971906315320    0.7503971729995385    0.9999849865174020
     0.7489823233673035    0.7446136915584833    0.5014481469362453
     0.4050692769290786    0.3945979792550424    0.7015512759871745
     0.0145767026855352    0.0111495254535156    0.2466409512507653
     0.9715757917971316    0.9991046646137143    0.7467926050410375
     0.0264596935667204    0.5039936148888858    0.2480063063758412
     0.9769821895838775    0.5049202107224999    0.7482937801758252
     0.5317232608996253    0.9982490822672888    0.2470899429997178
     0.4822424530568669    0.9944060633433662    0.7468875601316972
     0.5306686638323820    0.5070355736893103    0.2529366282650836
     0.5232399593140611    0.5405005498345690    0.7593021605848663
     0.2155868003510058    0.2294805270244170    0.2448600974179110
     0.2671925593807549    0.2399755051214740    0.7452227444163222
     0.2182243178817907    0.7686777512948678    0.2481949648529225
     0.2574937519885486    0.7591850598041244    0.7481077173497245
     0.7330886662644434    0.2513906820919366    0.2466011518607444
     0.7774114966548535    0.2609301520034150    0.7468597882170185
     0.7364907398338130    0.7600936404943599    0.2501292978879210
     0.7746607766032068    0.7379423371462366    0.7504041350640633
     0.4143994075456788    0.1632777255972998    0.0152203570636938
     0.4155906420219423    0.1623748785895850    0.4788880643065024
     0.4039623647623060    0.6632752627705686    0.0300165129428730
     0.4036720959088204    0.6561793817411020    0.4761361128790833
     0.9083598241579607    0.1658156993097252    0.0176558010386256
     0.9112331640564465    0.1631004390410884    0.4765546793648551
     0.9098301228096390    0.6612294040206207    0.0262403438365073
     0.9112881755666145    0.6598908084282017    0.4756297684856279
     0.0937024085243342    0.3444577832668712    0.9741204407464240
     0.0984789965853280    0.3458095078718282    0.5234323785855967
     0.0889970197113976    0.8488592897538264    0.9805835279922573
     0.0910238090691115    0.8457320485130021    0.5183727167546573
     0.5917182886651869    0.3485924661588707    0.9694620903300710
     0.5974490666444907    0.3471307540579054    0.5164064719701622
     0.5925576464811093    0.8426074866821840    0.9749690295696258
     0.5960414854733325    0.8444399450434409    0.5240378514137805
     0.3376558482357747    0.4150888459361155    0.0209875855333221
     0.3489760207210887    0.3957405048977926    0.3933326754768558
     0.3427168741947195    0.9153075786717266    0.0134984159535991
     0.3470143573058131    0.9093537909465633    0.4758946887312762
     0.8409638540884224    0.4125523797344672    0.0237948415597184
     0.8469486489547884    0.4101761422172611    0.4749311130283017
     0.8415332293561268    0.9111838970731094    0.0186513497770612
     0.8442331832866039    0.9068626796150729    0.4768036656767650
     0.1573197930245601    0.0959068433746005    0.9667785862072922
     0.1584623883285435    0.0960098690659081    0.5190709817275752
     0.1506066282002633    0.6045830796854146    0.9722431348267575
     0.1642422570134533    0.5918939671825755    0.5178795995669122
     0.6627899232461455    0.0932925666369801    0.9677282925806778
     0.6628018175096607    0.0939393867659057    0.5267713300616762
     0.6618255872463339    0.5926289037605480    0.9952098823533447
     0.6516589931730156    0.5936373480411186    0.5046306296334225
 
  0.00000000E+00  0.00000000E+00  0.00000000E+00
  0.00000000E+00  0.00000000E+00  0.00000000E+00
  0.00000000E+00  0.00000000E+00  0.00000000E+00
  0.00000000E+00  0.00000000E+00  0.00000000E+00
  0.00000000E+00  0.00000000E+00  0.00000000E+00
  0.00000000E+00  0.00000000E+00  0.00000000E+00
  0.00000000E+00  0.00000000E+00  0.00000000E+00
  0.00000000E+00  0.00000000E+00  0.00000000E+00
  0.00000000E+00  0.00000000E+00  0.00000000E+00
  0.00000000E+00  0.00000000E+00  0.00000000E+00
  0.00000000E+00  0.00000000E+00  0.00000000E+00
  0.00000000E+00  0.00000000E+00  0.00000000E+00
  0.00000000E+00  0.00000000E+00  0.00000000E+00
  0.00000000E+00  0.00000000E+00  0.00000000E+00
  0.00000000E+00  0.00000000E+00  0.00000000E+00
  0.00000000E+00  0.00000000E+00  0.00000000E+00
  0.00000000E+00  0.00000000E+00  0.00000000E+00
  0.00000000E+00  0.00000000E+00  0.00000000E+00
  0.00000000E+00  0.00000000E+00  0.00000000E+00
  0.00000000E+00  0.00000000E+00  0.00000000E+00
  0.00000000E+00  0.00000000E+00  0.00000000E+00
  0.00000000E+00  0.00000000E+00  0.00000000E+00
  0.00000000E+00  0.00000000E+00  0.00000000E+00
  0.00000000E+00  0.00000000E+00  0.00000000E+00
  0.00000000E+00  0.00000000E+00  0.00000000E+00
  0.00000000E+00  0.00000000E+00  0.00000000E+00
  0.00000000E+00  0.00000000E+00  0.00000000E+00
  0.00000000E+00  0.00000000E+00  0.00000000E+00
  0.00000000E+00  0.00000000E+00  0.00000000E+00
  0.00000000E+00  0.00000000E+00  0.00000000E+00
  0.00000000E+00  0.00000000E+00  0.00000000E+00
  0.00000000E+00  0.00000000E+00  0.00000000E+00
  0.00000000E+00  0.00000000E+00  0.00000000E+00
  0.00000000E+00  0.00000000E+00  0.00000000E+00
  0.00000000E+00  0.00000000E+00  0.00000000E+00
  0.00000000E+00  0.00000000E+00  0.00000000E+00
  0.00000000E+00  0.00000000E+00  0.00000000E+00
  0.00000000E+00  0.00000000E+00  0.00000000E+00
  0.00000000E+00  0.00000000E+00  0.00000000E+00
  0.00000000E+00  0.00000000E+00  0.00000000E+00
  0.00000000E+00  0.00000000E+00  0.00000000E+00
  0.00000000E+00  0.00000000E+00  0.00000000E+00
  0.00000000E+00  0.00000000E+00  0.00000000E+00
  0.00000000E+00  0.00000000E+00  0.00000000E+00
  0.00000000E+00  0.00000000E+00  0.00000000E+00
  0.00000000E+00  0.00000000E+00  0.00000000E+00
  0.00000000E+00  0.00000000E+00  0.00000000E+00
  0.00000000E+00  0.00000000E+00  0.00000000E+00
  0.00000000E+00  0.00000000E+00  0.00000000E+00
  0.00000000E+00  0.00000000E+00  0.00000000E+00
  0.00000000E+00  0.00000000E+00  0.00000000E+00
  0.00000000E+00  0.00000000E+00  0.00000000E+00
  0.00000000E+00  0.00000000E+00  0.00000000E+00
  0.00000000E+00  0.00000000E+00  0.00000000E+00
  0.00000000E+00  0.00000000E+00  0.00000000E+00
  0.00000000E+00  0.00000000E+00  0.00000000E+00
  0.00000000E+00  0.00000000E+00  0.00000000E+00
  0.00000000E+00  0.00000000E+00  0.00000000E+00
  0.00000000E+00  0.00000000E+00  0.00000000E+00
  0.00000000E+00  0.00000000E+00  0.00000000E+00
  0.00000000E+00  0.00000000E+00  0.00000000E+00
  0.00000000E+00  0.00000000E+00  0.00000000E+00
  0.00000000E+00  0.00000000E+00  0.00000000E+00
  0.00000000E+00  0.00000000E+00  0.00000000E+00
  0.00000000E+00  0.00000000E+00  0.00000000E+00
  0.00000000E+00  0.00000000E+00  0.00000000E+00
  0.00000000E+00  0.00000000E+00  0.00000000E+00
  0.00000000E+00  0.00000000E+00  0.00000000E+00
  0.00000000E+00  0.00000000E+00  0.00000000E+00
  0.00000000E+00  0.00000000E+00  0.00000000E+00
  0.00000000E+00  0.00000000E+00  0.00000000E+00
  0.00000000E+00  0.00000000E+00  0.00000000E+00
  0.00000000E+00  0.00000000E+00  0.00000000E+00
  0.00000000E+00  0.00000000E+00  0.00000000E+00
  0.00000000E+00  0.00000000E+00  0.00000000E+00
  0.00000000E+00  0.00000000E+00  0.00000000E+00
  0.00000000E+00  0.00000000E+00  0.00000000E+00
  0.00000000E+00  0.00000000E+00  0.00000000E+00
  0.00000000E+00  0.00000000E+00  0.00000000E+00
  0.00000000E+00  0.00000000E+00  0.00000000E+00
  0.00000000E+00  0.00000000E+00  0.00000000E+00
