50.0% N(Distort)=1 ~[0.4,0.7,0.6]       
   1.00000000000000     
    17.3024749755999991    0.0000000000000000    0.0000000000000000
     0.0000000000000000   17.3024749755999991    0.0000000000000000
     0.0000000000000000    0.0000000000000000   12.8121118545999995
  Cs              Pb              I             
    16    16    49
Direct
     0.2786600195106570    0.0127130551254676    0.2467101769903396
     0.2212808843856749    0.9914159889372473    0.7451533233629055
     0.2685735193567139    0.4937827764707901    0.2452217292022968
     0.2135603057996653    0.4702539224110356    0.7443036827951021
     0.7845448965838085    0.0174891950357529    0.2487438675297020
     0.7338989752662158    0.9998637511513662    0.7524196976430477
     0.7707581389628605    0.4985899249394198    0.2557077290456928
     0.7504049324497638    0.5204841771349709    0.7454323253678212
     0.0231101055908922    0.2440798345838407    0.2470074883276107
     0.9649193885438594    0.2603430555607835    0.7445427864712408
     0.0054562570710846    0.7687284557994363    0.2459786555700289
     0.9882030067236761    0.7466351376799640    0.7404714796381160
     0.5334250820276135    0.2437011142618706    0.2536426009617270
     0.4891116372531668    0.2560701017468712    0.7428494626071921
     0.5450434816959810    0.7551487860711310    0.2319901216400860
     0.4656165123525757    0.7981848536174180    0.7583038724031664
     0.0062645200000112    0.0056573250423794    0.9948098674313592
     0.0010254570343656    0.0048116945476596    0.4985746978758139
     0.0051028705556991    0.5005410597825553    0.9981997470997930
     0.0034118866352151    0.4994709455799958    0.4939734661859707
     0.5031574924528335    0.0068857746126514    0.9984196878732720
     0.5031461840905178    0.0005763860684920    0.4957570651747691
     0.5028147610550783    0.5054710995031521    0.0094474415029603
     0.4856688329410091    0.5208158179932582    0.5005349431153078
     0.2554725168033388    0.2538273803849435    0.9944607647941491
     0.2527123099667323    0.2485521402925039    0.4972479292716696
     0.2525949550486265    0.7517494035036935    0.9997103310350144
     0.2522274021273699    0.7490427724404558    0.4845303422374267
     0.7513240251815112    0.2558001294299001    0.9997394308985054
     0.7435757906556359    0.2558147957652926    0.5012783005711646
     0.7589265374959422    0.7545236532301305    0.9986779128733633
     0.7518096088267473    0.7538726709035342    0.4964699998473546
     0.3893528109016917    0.6028240010644882    0.6957721320758182
     0.0106063155860262    0.9942604214840669    0.2460602795651912
     0.9951531883499642    0.0285144915530144    0.7464053341806295
     0.0049972476569241    0.4729340799585370    0.2461382216674378
     0.9937596260600947    0.5184894538305738    0.7459943224528346
     0.5040950145475682    0.9801259647447771    0.2465926520071086
     0.5056905899670243    0.0272264198987239    0.7466426365069502
     0.5049747272860985    0.4715672333616580    0.2534480363081917
     0.5329892314614681    0.4827608394357913    0.7599067590119754
     0.2490186118479649    0.2666617440404282    0.2455929143331196
     0.2608548129038593    0.2270473830396696    0.7461799461671066
     0.2277619209097729    0.7895614033857129    0.2439779840739019
     0.2392587057259090    0.7435371762159245    0.7450381214745677
     0.7607285091207886    0.2704496830651668    0.2494956826781482
     0.7388493443058937    0.2303689223467499    0.7497676032029422
     0.7658866744567142    0.7832320532584227    0.2474394623582515
     0.7608457527948249    0.7435980948717452    0.7472501553973696
     0.4143158618681978    0.1649880893881966    0.0228293409212724
     0.4112169196056280    0.1584397943259356    0.4738545253750605
     0.4154591925714339    0.6685460785757981    0.0177235033722780
     0.3928060715674652    0.6537748958279169    0.3852347813409475
     0.9098615913075632    0.1615535441562459    0.0144134762122666
     0.9058826936581389    0.1602718553009026    0.4784555280824587
     0.9160813278819965    0.6609430217853925    0.0140928372972701
     0.9073758158252248    0.6553832407904803    0.4720255291484657
     0.0933781483650945    0.3407701799635615    0.9676425930132366
     0.0932274373034091    0.3397162693456959    0.5221288221286733
     0.0950277950322484    0.8463431705074629    0.9659934607074850
     0.0944560256245657    0.8449718527393861    0.5161950726405445
     0.5926325906539298    0.3439485020125169    0.9916562064663584
     0.5931843755082007    0.3542887409088557    0.5072328978433907
     0.6055227935771803    0.8542938719408273    0.9709010392287694
     0.5903004247637580    0.8390106799096528    0.5166585755878771
     0.3457106103706302    0.4136786942339042    0.9744349157257871
     0.3450961207325531    0.4053077328232226    0.5148818333275228
     0.3451754822173019    0.9123013789310384    0.9756287838704562
     0.3455629454823894    0.9060316037677173    0.5198337710890873
     0.8432071149389043    0.4139220875156497    0.9767548052261542
     0.8447280908230782    0.4075405624907250    0.5233774020162898
     0.8481197371966358    0.9143344709247231    0.9843376774053765
     0.8428180443611230    0.9131482779753343    0.5146345198393464
     0.1661964448101329    0.0942614585355994    0.0112827782996301
     0.1625401595719610    0.0902865519774376    0.4798580826976285
     0.1650778856869470    0.5906959059971375    0.0088008091383105
     0.1616622974896763    0.5892991168881588    0.4837514629091924
     0.6612012634888763    0.0969869688480814    0.0248671600948393
     0.6595237544815984    0.0934660366995686    0.4735896610651080
     0.6621335018824090    0.5995420386606362    0.0283609202860200
     0.6533802746210576    0.6000489736522273    0.4761512097544827
 
  0.00000000E+00  0.00000000E+00  0.00000000E+00
  0.00000000E+00  0.00000000E+00  0.00000000E+00
  0.00000000E+00  0.00000000E+00  0.00000000E+00
  0.00000000E+00  0.00000000E+00  0.00000000E+00
  0.00000000E+00  0.00000000E+00  0.00000000E+00
  0.00000000E+00  0.00000000E+00  0.00000000E+00
  0.00000000E+00  0.00000000E+00  0.00000000E+00
  0.00000000E+00  0.00000000E+00  0.00000000E+00
  0.00000000E+00  0.00000000E+00  0.00000000E+00
  0.00000000E+00  0.00000000E+00  0.00000000E+00
  0.00000000E+00  0.00000000E+00  0.00000000E+00
  0.00000000E+00  0.00000000E+00  0.00000000E+00
  0.00000000E+00  0.00000000E+00  0.00000000E+00
  0.00000000E+00  0.00000000E+00  0.00000000E+00
  0.00000000E+00  0.00000000E+00  0.00000000E+00
  0.00000000E+00  0.00000000E+00  0.00000000E+00
  0.00000000E+00  0.00000000E+00  0.00000000E+00
  0.00000000E+00  0.00000000E+00  0.00000000E+00
  0.00000000E+00  0.00000000E+00  0.00000000E+00
  0.00000000E+00  0.00000000E+00  0.00000000E+00
  0.00000000E+00  0.00000000E+00  0.00000000E+00
  0.00000000E+00  0.00000000E+00  0.00000000E+00
  0.00000000E+00  0.00000000E+00  0.00000000E+00
  0.00000000E+00  0.00000000E+00  0.00000000E+00
  0.00000000E+00  0.00000000E+00  0.00000000E+00
  0.00000000E+00  0.00000000E+00  0.00000000E+00
  0.00000000E+00  0.00000000E+00  0.00000000E+00
  0.00000000E+00  0.00000000E+00  0.00000000E+00
  0.00000000E+00  0.00000000E+00  0.00000000E+00
  0.00000000E+00  0.00000000E+00  0.00000000E+00
  0.00000000E+00  0.00000000E+00  0.00000000E+00
  0.00000000E+00  0.00000000E+00  0.00000000E+00
  0.00000000E+00  0.00000000E+00  0.00000000E+00
  0.00000000E+00  0.00000000E+00  0.00000000E+00
  0.00000000E+00  0.00000000E+00  0.00000000E+00
  0.00000000E+00  0.00000000E+00  0.00000000E+00
  0.00000000E+00  0.00000000E+00  0.00000000E+00
  0.00000000E+00  0.00000000E+00  0.00000000E+00
  0.00000000E+00  0.00000000E+00  0.00000000E+00
  0.00000000E+00  0.00000000E+00  0.00000000E+00
  0.00000000E+00  0.00000000E+00  0.00000000E+00
  0.00000000E+00  0.00000000E+00  0.00000000E+00
  0.00000000E+00  0.00000000E+00  0.00000000E+00
  0.00000000E+00  0.00000000E+00  0.00000000E+00
  0.00000000E+00  0.00000000E+00  0.00000000E+00
  0.00000000E+00  0.00000000E+00  0.00000000E+00
  0.00000000E+00  0.00000000E+00  0.00000000E+00
  0.00000000E+00  0.00000000E+00  0.00000000E+00
  0.00000000E+00  0.00000000E+00  0.00000000E+00
  0.00000000E+00  0.00000000E+00  0.00000000E+00
  0.00000000E+00  0.00000000E+00  0.00000000E+00
  0.00000000E+00  0.00000000E+00  0.00000000E+00
  0.00000000E+00  0.00000000E+00  0.00000000E+00
  0.00000000E+00  0.00000000E+00  0.00000000E+00
  0.00000000E+00  0.00000000E+00  0.00000000E+00
  0.00000000E+00  0.00000000E+00  0.00000000E+00
  0.00000000E+00  0.00000000E+00  0.00000000E+00
  0.00000000E+00  0.00000000E+00  0.00000000E+00
  0.00000000E+00  0.00000000E+00  0.00000000E+00
  0.00000000E+00  0.00000000E+00  0.00000000E+00
  0.00000000E+00  0.00000000E+00  0.00000000E+00
  0.00000000E+00  0.00000000E+00  0.00000000E+00
  0.00000000E+00  0.00000000E+00  0.00000000E+00
  0.00000000E+00  0.00000000E+00  0.00000000E+00
  0.00000000E+00  0.00000000E+00  0.00000000E+00
  0.00000000E+00  0.00000000E+00  0.00000000E+00
  0.00000000E+00  0.00000000E+00  0.00000000E+00
  0.00000000E+00  0.00000000E+00  0.00000000E+00
  0.00000000E+00  0.00000000E+00  0.00000000E+00
  0.00000000E+00  0.00000000E+00  0.00000000E+00
  0.00000000E+00  0.00000000E+00  0.00000000E+00
  0.00000000E+00  0.00000000E+00  0.00000000E+00
  0.00000000E+00  0.00000000E+00  0.00000000E+00
  0.00000000E+00  0.00000000E+00  0.00000000E+00
  0.00000000E+00  0.00000000E+00  0.00000000E+00
  0.00000000E+00  0.00000000E+00  0.00000000E+00
  0.00000000E+00  0.00000000E+00  0.00000000E+00
  0.00000000E+00  0.00000000E+00  0.00000000E+00
  0.00000000E+00  0.00000000E+00  0.00000000E+00
  0.00000000E+00  0.00000000E+00  0.00000000E+00
  0.00000000E+00  0.00000000E+00  0.00000000E+00
