Rattled N(Distort)=0 ~[0.5,0.5,0.4]
1.0
  16.8815766317114395    0.0000000000000000    0.0000000000000000
   0.0000000000000000   17.3358822854753925    0.0000000000000000
   0.0000000000000000    0.0000000000000000   24.4833477746536268
Cs Pb I Br
32 32 64 31
direct
   0.5196327414271293    0.2246884046479032    0.1300160689550112 Cs+
   0.5063601054496909    0.2220622992702696    0.6211135383761081 Cs+
   0.4820273837727571    0.7176143295328772    0.1122306190051064 Cs+
   0.4748977025814924    0.7311930381231121    0.6200899257501806 Cs+
   0.9843262839186303    0.2238578101822241    0.1194928897591254 Cs+
   0.9893419571706077    0.2211440281330604    0.6057326285478322 Cs+
   0.9842609385788194    0.7279689260798395    0.1382429932284195 Cs+
   0.9611298196912100    0.7416659199171856    0.6171147244502849 Cs+
   0.0148849467891137    0.3027451991922622    0.3669509648559603 Cs+
   0.0108702277556753    0.2520969615468283    0.8824708856052417 Cs+
   0.9920675627591999    0.7653633986022058    0.3785526699506366 Cs+
   0.0079750083272273    0.8121587298355690    0.8696093623860135 Cs+
   0.5222260584101504    0.2782427151542011    0.3708314558754420 Cs+
   0.4985007697131036    0.2753050128871800    0.8974893124857738 Cs+
   0.5188340624415325    0.7952129195550938    0.3832469020901815 Cs+
   0.4764040077431061    0.7760912679920347    0.8843213887615207 Cs+
   0.2555956651997749    0.4621721409329962    0.1163214070002774 Cs+
   0.2762299414425315    0.4579725425148292    0.6232128976764006 Cs+
   0.2525753304488842    0.9713573573628008    0.1175036784971663 Cs+
   0.2487370168939685    0.9519700551802949    0.6213273838592394 Cs+
   0.7594658335258797    0.4726407899523659    0.1301367960549737 Cs+
   0.7497719154937910    0.4900523137562319    0.6344078258474264 Cs+
   0.7887064060264157    0.9811681511515034    0.1196595284013924 Cs+
   0.7457804394361170    0.9418365458622755    0.6223848195820162 Cs+
   0.2528826097143222    0.0514153414862193    0.3649651400690313 Cs+
   0.2451075357298449    0.0475446477783656    0.8790987844597178 Cs+
   0.2524916260496719    0.5086844080857588    0.3693025324614752 Cs+
   0.2641755631525197    0.5322479423515687    0.8736579375311735 Cs+
   0.7579738686127844    0.0311181314728674    0.3680334119049253 Cs+
   0.7574241829798105    0.0379057536178844    0.8913585468903444 Cs+
   0.7454688357328699    0.5501967545415429    0.3735483065426919 Cs+
   0.7109479020388315    0.5470893075617396    0.8914635838845935 Cs+
   0.9931516198275707    0.0070440920015848    0.2479589993418523 Pb2+
   0.9916268914365568    1.0094474596295935    0.7492968692513602 Pb2+
   0.9955916128172250    0.5099264505734736    0.2677755502566120 Pb2+
   0.9884482150341973    0.4998861350186850    0.7398784112906017 Pb2+
   0.5106623805720962    0.9894089548384415    0.2461435325039623 Pb2+
   0.5012038533029355    0.9842193540406090    0.7384983783788376 Pb2+
   0.4924300891989272    0.5019576048124400    0.2513033366833686 Pb2+
   0.4947923166693110    0.5114358796737429    0.7582940947305359 Pb2+
  -0.0015925780418612    0.0046752077811357    0.0201320947791709 Pb2+
   0.9934520278492940    0.9869643049788359    0.4805024632872805 Pb2+
   0.9958296031097850    0.5054483364244408    0.0083102654272348 Pb2+
   0.9931716439003057    0.4886292401989648    0.4959776723978911 Pb2+
   0.4901633217144709    1.0014240819197755    0.9756200791655851 Pb2+
   0.5364799332476196   -0.0092163090865724    0.4856027057535494 Pb2+
   0.4908039668442483    0.5053368735455842    0.0024378189946743 Pb2+
   0.5327132087915268    0.5229350796359746    0.4844339453554231 Pb2+
   0.2369586142142825    0.2497207756219380    0.0176148273428436 Pb2+
   0.2533625007899971    0.2522352802445240    0.4853712848405502 Pb2+
   0.2643994638666511    0.7503278296866676   -0.0045021540806528 Pb2+
   0.2589146952884633    0.7529791817028144    0.4951254820957224 Pb2+
   0.7902732495488021    0.2301217128082457    0.0065796016645116 Pb2+
   0.7507508021081348    0.2435473429474254    0.5090129519922967 Pb2+
   0.7424762671637605    0.7643644995573029    0.9799013550063518 Pb2+
   0.7490738360975753    0.7613335045567076    0.5002486739448689 Pb2+
   0.2672930802997888    0.2640060100339190    0.2282473301783642 Pb2+
   0.2499183799713723    0.2555187727485026    0.7597075744590617 Pb2+
   0.2557204245884341    0.7441438326467396    0.2332312390989939 Pb2+
   0.2687961852788384    0.7540907903290822    0.7702021267652912 Pb2+
   0.7766456702444392    0.2475873480460977    0.2388176552323560 Pb2+
   0.7657721494301861    0.2500419437638827    0.7526989715493160 Pb2+
   0.7396538532645263    0.7503975623311469    0.2514013141185777 Pb2+
   0.7581989776909017    0.7307581182893065    0.7527928731988854 Pb2+
   0.1088244444999645    0.1566156993455660    0.2662440266751797 I-
   0.0890207957397523    0.1292555860139306    0.7600662500404680 I-
   0.1008469667857763    0.6604330865183757    0.7675065492651783 I-
   0.6166579980860474    0.1573926703794649    0.2716910359638140 I-
   0.5969124810390866    0.1563312025375782    0.7696293869987084 I-
   0.5991498574193438    0.6361402343118376    0.2679657412105771 I-
   0.6014615357582308    0.6599916998021585    0.7837152327150557 I-
   0.4087826603012293    0.3544666827635154    0.0238267826405635 I-
   0.3943698949803525    0.8664464419581367    0.4987919778392414 I-
   0.9128266383402189    0.8730760646092361    0.0160878709115877 I-
   0.1384302992746460    0.4138569872886051    0.9742896239476948 I-
   0.1540054613677500    0.8846715560970742    0.4731655796236015 I-
   0.6570847707211983    0.4088238217683833    0.4813394452149531 I-
   0.6539481159819388    0.3944906486589670    1.0003316721497770 I-
   0.6661233171896375    0.9014122793471513    0.9813725976365016 I-
   0.3494374682790358    0.1105220075511032    0.2222985054155885 I-
   0.3331758322630922    0.1074168991691795    0.7334937705383728 I-
   0.3598060329022177    0.5929563994437200    0.2260413658867708 I-
   0.3452873306315534    0.5952626688488722    0.7308201990280360 I-
   0.8529791385932842    0.1103624727374592    0.7157000414257906 I-
   0.4115688688235379    0.3370659288362073    0.7293751957943264 I-
   0.4047809010101447    0.8347954942594324    0.2339120113831934 I-
   0.9037685318679124    0.3313215473999440    0.7289871017427337 I-
   0.8927810446356075    0.8434547657240864    0.2255257585841288 I-
   0.1230472009968493    0.1256852208422802    0.4856360469383220 I-
   0.0901597137796446    0.6445393780095533    0.4768938716732408 I-
   0.0916062636379584    0.6810118555691579    0.9970985103526376 I-
   0.6131515460914018    0.1735421003778261    0.9845405841453457 I-
   0.5947266518498791    0.6455740164275021    0.9619101082862381 I-
   0.3201817228282534    0.1014309847012630    0.0283398965316176 I-
   0.3569942577585142    0.1206621875990253    0.5220808699977337 I-
   0.3537353882903093    0.5893536405322159    0.0162622467650993 I-
   0.3729762109455744    0.6142065666593307    0.5120842647177989 I-
   0.8377875908506879    0.0879051549961033    0.5102833364292158 I-
   0.8349254137064671    0.5982458137528179    0.0246429356853231 I-
   0.8635068832199865    0.5906473777169288    0.5122680786214785 I-
   0.1525822919055837    0.3919182653228048    0.2654500518626169 I-
   0.1378387800264422    0.3952725643200468    0.7662438732604170 I-
   0.1606873620646752    0.8980854386959941    0.2845296721197801 I-
   0.1609516912025271    0.9005636545434277    0.7693807202096570 I-
   0.6571103643338165    0.3746123474892981    0.2658055709581129 I-
   0.6572892879956636    0.3970979360337423    0.7757566417241386 I-
   0.6731324043105286    0.8961977087127111    0.7845287514257027 I-
   0.4675599780491738    0.4918674677343101    0.8627932737543571 I-
   0.4559017813029846    0.0072288604335680    0.3759606949260738 I-
   0.4510528281254034    0.0205396493781320    0.8795595655319958 I-
   0.9600974958335717    0.4971070872830410    0.3641465086034518 I-
   0.9372999350556352    0.4749368369608751    0.8628142216061316 I-
   0.9698863180216545   -0.0038668313246883    0.8705777053531490 I-
   0.0324389474597541    0.9831502321414224    0.6317139131457014 I-
   0.0332083069053825    0.4788507064030032    0.1116840194485521 I-
   0.0392647400504435    0.5087300558613991    0.6231591826283970 I-
   0.5558212499278417    1.0048500787064727    0.1202104422780133 I-
   0.5764479807524553   -0.0063432224549022    0.6163080487977540 I-
   0.5355696267902619    0.5011151315470476    0.6302766998374026 I-
   0.2761870414941391    0.2568874305759844    0.3784295953543747 I-
   0.2911010425350292    0.7646726955820862    0.3832297485880243 I-
   0.8066914691914371    0.2467030732594318    0.3677768739018797 I-
   0.7933924791108522    0.2600951042363375    0.8728905193468813 I-
   0.2089345308854813    0.2265335007789448    0.6135459784380192 I-
   0.2011656862231832    0.7534813690740043    0.6185473314961395 I-
   0.7168424825398730    0.2287966788172198    0.6344219224933845 I-
   0.7155474466293706    0.7691672877808439    0.1184324182283687 I-
   0.7353103895993378    0.7419765321194941    0.6458519510762145 I-
   0.1051491220684722    0.6403547388887904    0.2717075108821896 Br-
   0.3929993133003108    0.3637696262287771    0.5159593669348105 Br-
   0.3898794477555313    0.8541165148931967    0.0144877118848234 Br-
   0.9078117442112957    0.3484256202526080    0.0153853948434836 Br-
   0.8839702840235272    0.3518682172594317    0.5195876652231726 Br-
   0.8985577538915747    0.8499203013046323    0.5145745684301429 Br-
   0.1522172097972903    0.3981200571588627    0.4720617305795595 Br-
   0.1500913104121241    0.9167967406727334    0.9904877211930057 Br-
   0.6829406510801407    0.8937887180435347    0.4725216310289497 Br-
   0.8710993940544878    0.1179558154677349    0.2306752729126241 Br-
   0.8369381275524062    0.6014963456875813    0.2368886002266519 Br-
   0.8547589640532266    0.6029214744701961    0.7274371126961562 Br-
   0.4101637664042072    0.3366456880610469    0.2291011754666933 Br-
   0.3904976033372808    0.8347739855817955    0.7280482389361775 Br-
   0.8776619969313051    0.3623873259516309    0.2327461385722607 Br-
   0.9247393857414584    0.8348612269774199    0.7502792598531993 Br-
   0.0949357904258339    0.1485657293912003    0.9938991776902425 Br-
   0.6088642879014150    0.1701247943586547    0.4752810096483948 Br-
   0.6002662851109306    0.6530177889846525    0.4722600773730528 Br-
   0.8439969649532216    0.0731944544911098    0.0318384133616841 Br-
   0.6328962788996624    0.8952343160272768    0.2648665648126218 Br-
   0.9403618867088261    0.9856788432789989    0.3788260226477723 Br-
   0.0534514377628827    0.0368015811720015    0.1320529734275593 Br-
   0.5417752632146789    0.5116928892943585    0.1409596989762752 Br-
   0.2869969107036947    0.2315603277653401    0.8756967694574390 Br-
   0.2657206719008905    0.7573955123077023    0.8719039589270082 Br-
   0.7538357275908035    0.7513814278136863    0.3640092919943855 Br-
   0.7814862126608317    0.7226293870100822    0.8777227751057235 Br-
   0.1986958541823355    0.2510786846694989    0.1132739155274201 Br-
   0.2057398175823614    0.7539419653940943    0.1237178410300858 Br-
   0.7192684447025363    0.2343790999680337    0.1334004431158788 Br-
