Cs Pb I  Br                             
1.0
       16.8815765381         0.0000000000         0.0000000000
        0.0000000000        17.3358821869         0.0000000000
        0.0000000000         0.0000000000        24.4833469391
   Cs   Pb    I   Br
   32   32   64   31
Direct
     0.509904091         0.214512472         0.129431965
     0.489522536         0.224643300         0.616827790
     0.482926361         0.718777983         0.121587141
     0.492132530         0.719084145         0.627902095
     0.991421919         0.227111632         0.127289441
     0.985851523         0.209894405         0.617267341
     0.996559584         0.712433555         0.127635806
     0.982731288         0.727839609         0.621927068
     0.021442943         0.292747171         0.377653950
     0.015564325         0.277870104         0.880747512
     0.995224863         0.774094624         0.370875119
     0.007614296         0.792801029         0.876647759
     0.512023589         0.275679079         0.378407756
     0.494108207         0.273706885         0.880608586
     0.515758960         0.784241461         0.379315326
     0.487911908         0.784527464         0.875303075
     0.263262857         0.458929841         0.121382086
     0.262687081         0.462629202         0.625274670
     0.244950521         0.960876416         0.127757282
     0.253635482         0.974278360         0.617004134
     0.750596794         0.467654877         0.135475781
     0.766000673         0.471725376         0.627355668
     0.771819315         0.977439703         0.123128141
     0.769785934         0.948369827         0.624400496
     0.246828155         0.042069722         0.370873852
     0.222973032         0.037422570         0.886608560
     0.249185604         0.519305985         0.380883860
     0.240741008         0.549703361         0.875342888
     0.742091858         0.019236615         0.372079282
     0.746595843         0.041895433         0.876709247
     0.735558117         0.544595929         0.369938122
     0.731400425         0.538888270         0.879292957
     0.996184711         0.005639961         0.250637802
     0.995498694         0.993870225         0.748779420
     0.991724280         0.505182573         0.248421835
     0.995959437         0.503935291         0.751721621
     0.506581811         0.990862026         0.248267064
     0.499104732         0.993017037         0.750809576
     0.493593941         0.490979292         0.249009750
     0.502070055         0.499745179         0.750831788
     0.005270208         0.008791242         0.008671310
     0.992122613         0.991972072         0.490000963
     0.994358075         0.495235597         0.000186985
     0.999880546         0.490736896         0.501226133
     0.494913103         0.994134946         0.999912158
     0.516285396         0.004696010         0.499985533
     0.501207571         0.499933813         0.007587185
     0.502197553         0.501303635         0.492433797
     0.245865266         0.248084658         0.002017533
     0.253206192         0.258912454         0.498888311
     0.245115859         0.760649417         0.001309248
     0.250467064         0.750986474         0.497972674
     0.761008182         0.249227864         0.006563882
     0.754368909         0.249558247         0.497526706
     0.753124103         0.751383838         0.995890232
     0.745778972         0.750689875         0.494010525
     0.255049180         0.255018409         0.240171168
     0.248921381         0.247834216         0.756397102
     0.237102121         0.742545407         0.246141336
     0.254810321         0.757789950         0.753630900
     0.763705650         0.247953809         0.247254217
     0.750435303         0.249421088         0.751120663
     0.745067319         0.749509520         0.249295434
     0.761668131         0.745004321         0.756115902
     0.099296686         0.156613257         0.268654336
     0.087910903         0.152860714         0.761230978
     0.095204267         0.659479061         0.769560159
     0.608694660         0.145203376         0.267427466
     0.594132446         0.150048535         0.772843465
     0.588778009         0.648616569         0.266496780
     0.597258323         0.656154194         0.771667476
     0.406047187         0.342580245         0.023527166
     0.407404696         0.854508118         0.518169813
     0.907679863         0.852566116         0.021336006
     0.156374602         0.404733040         0.976671073
     0.152432717         0.901254778         0.471028472
     0.658310857         0.402643450         0.475122642
     0.656912979         0.401701720         0.990455939
     0.650340875         0.898788833         0.970177869
     0.352841054         0.099011516         0.226455503
     0.347564709         0.095938030         0.727819460
     0.338321923         0.590324083         0.231512458
     0.346194401         0.599072531         0.732897279
     0.839841326         0.090675275         0.729573907
     0.406695912         0.343073027         0.734874856
     0.395918449         0.844150796         0.233137810
     0.909287752         0.343798800         0.728534189
     0.899282546         0.851099613         0.228738777
     0.099828890         0.145826104         0.480672506
     0.096616943         0.648548021         0.480975332
     0.091453672         0.654171742         0.982346523
     0.602952322         0.146983936         0.986304768
     0.592876137         0.656895231         0.981037695
     0.346076078         0.097780560         0.029021438
     0.357628328         0.106178221         0.512670723
     0.343703163         0.604514810         0.017937897
     0.349460094         0.598832815         0.519960062
     0.839233195         0.089144960         0.517726978
     0.841766891         0.595000135         0.026092116
     0.847370903         0.597792560         0.512579646
     0.150282708         0.406381451         0.265371410
     0.154840126         0.405006246         0.773548162
     0.148559493         0.901218988         0.271412804
     0.161708553         0.912975649         0.767701367
     0.651051602         0.393216924         0.271479004
     0.660067220         0.406382974         0.768331454
     0.658887201         0.897242722         0.774373083
     0.464052916         0.495040970         0.878758766
     0.469812968         0.004127641         0.374686958
     0.445708204         0.004756910         0.875356536
     0.958242308         0.504568693         0.374383618
     0.949718673         0.493482723         0.875390621
     0.972910926         0.012707686         0.878947387
     0.024484095         0.982224708         0.620057017
     0.040965257         0.494156721         0.124262238
     0.039732666         0.508218730         0.625412134
     0.548188155         0.986943000         0.123538067
     0.551158273         0.005710870         0.626383629
     0.536747641         0.495697804         0.621388276
     0.285931710         0.263878781         0.369991769
     0.290163606         0.738465286         0.371770329
     0.804583239         0.236095300         0.372987324
     0.790787060         0.258668444         0.878435960
     0.214071518         0.247987425         0.625935225
     0.212717732         0.756097022         0.626763107
     0.713053096         0.253668683         0.624057741
     0.706733527         0.760541091         0.122967684
     0.722200017         0.736385910         0.625001539
     0.087988668         0.651447412         0.264282934
     0.398274141         0.357045595         0.514297110
     0.395175967         0.851404389         0.019296947
     0.906452907         0.346247474         0.020089419
     0.903163347         0.345994717         0.518159663
     0.895471699         0.845018347         0.508120716
     0.148876202         0.906943389         0.990303505
     0.654957846         0.898857944         0.480256302
     0.852467686         0.101168331         0.228308186
     0.844978835         0.605162021         0.231117432
     0.848980428         0.596968529         0.732407067
     0.403602592         0.346538472         0.221403014
     0.406403803         0.845056552         0.732871420
     0.901158922         0.356261075         0.230591037
     0.906351542         0.842822459         0.737500156
     0.097688710         0.155141786         0.988888533
     0.606304328         0.153393980         0.479448328
     0.599262436         0.647908358         0.478136088
     0.857711401         0.104376889         0.021220485
     0.648977062         0.892742103         0.271748910
     0.463888103         0.485623136         0.371728739
     0.956683086         0.989267102         0.370468506
     0.033816042         0.015008197         0.129192132
     0.532723439         0.508627353         0.128623206
     0.276998350         0.238893804         0.878689538
     0.273638574         0.759514607         0.878800202
     0.776016015         0.751645316         0.372596879
     0.798046995         0.738772206         0.875885635
     0.206505268         0.256878175         0.121884656
     0.211095033         0.753918850         0.123490351
     0.725555449         0.254467139         0.126845568
