Dimer N(Distort)=0 ~[0.5,0.5,0.4]
1.0
  16.8815766317114395    0.0000000000000000    0.0000000000000000
   0.0000000000000000   17.3358822854753925    0.0000000000000000
   0.0000000000000000    0.0000000000000000   24.4833477746536268
Cs Pb I Br
32 32 64 31
direct
   0.5196327414271293    0.2246884046479032    0.1300160689550112 Cs+
   0.5063601054496909    0.2220622992702696    0.6211135383761081 Cs+
   0.4820273837727571    0.7176143295328772    0.1122306190051064 Cs+
   0.4748977025814924    0.7311930381231121    0.6200899257501806 Cs+
   0.9843262839186303    0.2238578101822241    0.1194928897591254 Cs+
   0.9893419571706077    0.2211440281330604    0.6057326285478322 Cs+
   0.9842609385788194    0.7279689260798395    0.1382429932284195 Cs+
   0.9611298196912100    0.7416659199171856    0.6171147244502849 Cs+
   0.0148849467891137    0.3027451991922622    0.3669509648559603 Cs+
   0.0108702277556753    0.2520969615468283    0.8824708856052417 Cs+
   0.9920675627591999    0.7653633986022058    0.3785526699506366 Cs+
   0.0079750083272273    0.8121587298355690    0.8696093623860135 Cs+
   0.5110954527431706    0.2969908505949830    0.3891782900257552 Cs+
   0.5043106770886563    0.2762705209617918    0.8730322858033722 Cs+
   0.5201515220779305    0.7858395889307147    0.3961960527654257 Cs+
   0.4909870104428945    0.7954989228573742    0.8792346503139720 Cs+
   0.2517549568738819    0.4504936445874635    0.1304004003155813 Cs+
   0.2550198894167632    0.4658715024508902    0.6202139910020004 Cs+
   0.2584933816204341    0.9562197559697551    0.1256955095030470 Cs+
   0.2612602914122902    0.9847593019516820    0.6067505308048784 Cs+
   0.7456983291858020    0.4453465720521211    0.1397990301256470 Cs+
   0.7748697120371304    0.4767112884043159    0.6220166832148936 Cs+
   0.7555905572626891    0.9957666408223652    0.1301802994969215 Cs+
   0.7866730250856647    0.9520982750291703    0.6209318832050219 Cs+
   0.2228226606047026    0.0355364409685917    0.3688581757325223 Cs+
   0.2290274866670627    0.0467681895428044    0.8806998475132505 Cs+
   0.2713201076265687    0.5294280630086555    0.3733740846426306 Cs+
   0.2440470300286653    0.5390817837762689    0.8637615604675823 Cs+
   0.7655264136543927    0.0017811963841953    0.3703943320798102 Cs+
   0.7624778529869743    0.0537769498267171    0.8726633763569758 Cs+
   0.7463864576520917    0.5406062491796951    0.3845874224794488 Cs+
   0.7413111432589702    0.5444890956846773    0.8829031412085088 Cs+
   0.9757321885688390    0.0138409988989918    0.2628084287705117 Pb2+
   0.9924656030065541    0.9952743559501629    0.7461006173678307 Pb2+
   0.9878524772183462    0.5207598074903359    0.2489392840808249 Pb2+
   0.9998267700019932    0.5086791684175578    0.7710753366067602 Pb2+
   0.4990705884011191    0.9868128699118982    0.2364238543789409 Pb2+
   0.5031853013377827    0.9915639660942860    0.7486860439248370 Pb2+
   0.4956930625996541    0.4821816087723270    0.2366985530260421 Pb2+
   0.5009062029323956    0.5107234921205142    0.7531253742762973 Pb2+
  -0.0020075298206500    0.0204819428270782    0.0161336164029584 Pb2+
   0.9852598269431302    0.9878560372880599    0.5014617485726421 Pb2+
   0.9956874897789817    0.4902278305994993   -0.0093115152817723 Pb2+
   1.0013520737259098    0.5009496349282135    0.5093494130831485 Pb2+
   0.4882042010494301    0.9920272908516129    0.9946636973752545 Pb2+
   0.5115356153675314    0.0119851458820721    0.4756934545386188 Pb2+
   0.5214021075470993    0.4860214933426651   -0.0067956419648423 Pb2+
   0.5031256889328750    0.4799918633126137    0.4816632628708295 Pb2+
   0.2354616619307450    0.2534877182932247   -0.0031318327240269 Pb2+
   0.2837218477594167    0.2805438984216576    0.4908884598355395 Pb2+
   0.2362092073757194    0.7622855346624164    0.0169065415282852 Pb2+
   0.2506233731396212    0.7443093010583240    0.4844556475349743 Pb2+
   0.7802917873221066    0.2389062774995862    0.0007524802670242 Pb2+
   0.7628165401120285    0.2515509543462301    0.4946795141247506 Pb2+
   0.7823891703368148    0.7322776863851344    0.9959059515989240 Pb2+
   0.7421608652561843    0.7446789709044283    0.5054967706606265 Pb2+
   0.2444013441157075    0.2679990709235039    0.2241822915121580 Pb2+
   0.2522162450320081    0.2584778457697225    0.7626352516977045 Pb2+
   0.2493460214968926    0.7515330071918659    0.2342174982127777 Pb2+
   0.2558073196788218    0.7654745067013459    0.7569413715855662 Pb2+
   0.7823239536748884    0.2495522355635273    0.2343441192957772 Pb2+
   0.7644211676486901    0.2457219280283567    0.7676918899217202 Pb2+
   0.7580073388026918    0.7491430582040524    0.2408588728430478 Pb2+
   0.7770049774562018    0.7456251770073430    0.7576942107025634 Pb2+
   0.0938832201965829    0.1575012998455051    0.2707602160475370 I-
   0.0844417494620368    0.1386145114293805    0.7579079492533122 I-
   0.1047320252485520    0.6594815036220409    0.7671498495993739 I-
   0.6098045519791047    0.1215982478901707    0.2662627378207710 I-
   0.5997751457177857    0.1510025604542049    0.7707898556140869 I-
   0.5967413480620273    0.6608058628150579    0.2707603505629020 I-
   0.6000383587917240    0.6624368613221527    0.7684533972336685 I-
   0.4164190349401916    0.3301039103955495    0.0249961265176365 I-
   0.4116079086015368    0.8583456236671342    0.5302175701390093 I-
   0.9104153358624575    0.8644525538158966    0.0216356230871549 I-
   0.1433398009614636    0.4166713637413769    0.9572932376331865 I-
   0.1575794929065263    0.9217647273128800    0.4657803365859701 I-
   0.6403665542584281    0.4117673979780454    0.4727411931026354 I-
   0.6584857233086103    0.3851184972692354    0.9925930468209043 I-
   0.6491147889436258    0.9049692045613534    0.9763946722651584 I-
   0.3498761909724926    0.0918004447720526    0.2363312360913463 I-
   0.3633471503963818    0.0985614756772060    0.7390141889327823 I-
   0.3349183368404587    0.6018345752405750    0.2273554603788176 I-
   0.3318055250176207    0.6105514005145752    0.7385715888847612 I-
   0.8613254363112831    0.0933075907996938    0.7241028155634789 I-
   0.4057888411735182    0.3392631647205719    0.7327977758451638 I-
   0.4090562612416049    0.8638379936342823    0.2192639442172223 I-
   0.9141607093502457    0.3377917022446761    0.7230345287104442 I-
   0.9081449984070401    0.8417443116375837    0.2295129783903045 I-
   0.0943096689533699    0.1333488507980209    0.4811254191602994 I-
   0.0901154419864550    0.6409031735525732    0.4777623137986559 I-
   0.1146719830972330    0.6340308593401255    0.9873100641733313 I-
   0.5964950928271877    0.1429752932563168    0.9822233072359736 I-
   0.5930287290821248    0.6837353445089466    0.9957896822048442 I-
   0.3562753017727940    0.1243387237659850    0.0272572543282669 I-
   0.3594788426700311    0.0948570065820023    0.4935431358461107 I-
   0.3178088080332594    0.6081652351827032    0.0172563554335574 I-
   0.3488260242228126    0.6133167816149694    0.5293702091341431 I-
   0.8492654197375186    0.0739837905698550    0.5160513278224155 I-
   0.8652830075481993    0.6103738865495596    0.0182163193484794 I-
   0.8459252995306205    0.5965527551413183    0.5051360045058658 I-
   0.1434412305627547    0.4096271300400127    0.2639222296228825 I-
   0.1709761059021844    0.3978610639207649    0.7732365941774605 I-
   0.1508590772163055    0.8867558022260990    0.2714914454163908 I-
   0.1447072073087576    0.9032419667803352    0.7603970784625890 I-
   0.6631794704727298    0.3900833747918371    0.2845958725394143 I-
   0.6593103574162026    0.3939709800478384    0.7700108074688052 I-
   0.6649459638621408    0.8786381449308174    0.7686996495286067 I-
   0.4612749846130538    0.4857559314654945    0.8861839533252025 I-
   0.4840581713366133    0.0030826280649342    0.3848426262056758 I-
   0.4492152659880932    0.0015834083857139    0.8593910442271494 I-
   0.9443311216545283    0.5076699126884452    0.3756573555871544 I-
   0.9550632968982365    0.5092654616563679    0.8795936499853463 I-
   0.9747661130149710    0.0052460797910952    0.8687102771468640 I-
   0.0120653568149229    0.9636788227233973    0.6074806181191883 I-
   0.0379406497129990    0.4775822037344561    0.1158925567845873 I-
   0.0476875182155917    0.5091442535738445    0.6370690300996744 I-
   0.5404312046345827    0.9716369851270090    0.1109598482059282 I-
   0.5506903480391903    0.0062221963681074    0.6241306775996898 I-
   0.5443807357121745    0.5136048829762665    0.6180606512871509 I-
   0.3112214177059381    0.2518246876322984    0.3599161888808611 I-
   0.2889855924603606    0.7438826136574660    0.3806587532746353 I-
   0.7948385698496809    0.2291039495646248    0.3814251497783839 I-
   0.7917244959197606    0.2848758536870387    0.8898953788844075 I-
   0.2161797484984412    0.2585951989295066    0.6207247755473122 I-
   0.2153231515328852    0.7575236820301295    0.6212176664827744 I-
   0.7079161084589142    0.2322147582861951    0.6116684936938307 I-
   0.6951814806325893    0.7579254379390948    0.1147519083480827 I-
   0.7259894035288563    0.7115139063032185    0.6353657207076123 I-
   0.0968025876224089    0.6600736090507531    0.2597476680901246 Br-
   0.4113845137530187    0.3626362167393469    0.5351475226600936 Br-
   0.4123364209387830    0.8403117158455458    0.0267215243563230 Br-
   0.9011780793270043    0.3529715055589134    0.0217516756170960 Br-
   0.8978668277655448    0.3487068432022961    0.5133504281261151 Br-
   0.8968305361110244    0.8471964926591885    0.5034166912578933 Br-
   0.1310795098737852    0.4047519211817654    0.4851190510152242 Br-
   0.1519622574845519    0.9118453433484138    0.9967573580194306 Br-
   0.6569024833794812    0.8980995797974840    0.4686269833941997 Br-
   0.8536827939162913    0.1110216831032107    0.2284924021739249 Br-
   0.8729616397003961    0.6000927955670238    0.2233827615826845 Br-
   0.8676121361610520    0.6137560129695580    0.7347741534076986 Br-
   0.3955618854128675    0.3428727958014469    0.2271741815490903 Br-
   0.4121823390359646    0.8510094982921207    0.7279014656550697 Br-
   0.9077200963022268    0.3463682913394106    0.2382891988786363 Br-
   0.8904453422452333    0.8325398926443732    0.7326769752226421 Br-
   0.0741917847629559    0.1612680374963330    0.9910436344370611 Br-
   0.6246921722895837    0.1454327472475327    0.4922274321388850 Br-
   0.5965095160985537    0.6413323011707601    0.4831467323014382 Br-
   0.8602713605970848    0.1211077037216383    0.0170531669688286 Br-
   0.6499809111790802    0.8978515339196711    0.2658728993038798 Br-
   0.9429686503575677    0.9580846671384142    0.3810864340313578 Br-
   0.0177352585913762    0.0175004098035374    0.1223097875818646 Br-
   0.5164022397062592    0.5050390949968179    0.1369807221873933 Br-
   0.2966337461855985    0.2606871887748064    0.8815503787888145 Br-
   0.2826903979089133    0.7625801428351093    0.8911366950877193 Br-
   0.7860145754219030    0.7443118391490138    0.3696041109705128 Br-
   0.7901290923550313    0.7366531112639385    0.8689893918928040 Br-
   0.1843249803150054    0.2566142872923785    0.1132970691178411 Br-
   0.1945342511180846    0.7377760311156637    0.1253274908438288 Br-
   0.7177460353857632    0.2486676478347619    0.1182348273701546 Br-
