Cs Pb I  Br                             
   1.0000000000000000     
    16.8815766317114395    0.0000000000000000    0.0000000000000000
     0.0000000000000000   17.3358822854753925    0.0000000000000000
     0.0000000000000000    0.0000000000000000   24.4833477746536268
  Cs              Pb              I               Br            
    32    32    64    32
Direct
     0.5099040911829235    0.2145124722525671    0.1294319654939848
     0.4895225358162718    0.2246433000454634    0.6168277903903503
     0.4829263609986235    0.7187779833526926    0.1215871411959105
     0.4921325302123158    0.7190841448407391    0.6279020954178876
     0.9914219191700567    0.2271116321061567    0.1272894414736054
     0.9858515228141768    0.2098944050006873    0.6172673414298581
     0.9965595839967609    0.7124335550978030    0.1276358059756398
     0.9827312878976743    0.7278396093392667    0.6219270684720557
     0.0214429431005527    0.2927471713283817    0.3776539499662675
     0.0155643249700007    0.2778701041752630    0.8807475119054282
     0.9952248629275595    0.7740946236420808    0.3708751190518791
     0.0076142958322686    0.7928010290668028    0.8766477591219097
     0.5120235885122538    0.2756790790388071    0.3784077561124013
     0.4941082071907598    0.2737068848463977    0.8806085860403317
     0.5157589595555867    0.7842414608899324    0.3793153263199835
     0.4879119075569486    0.7845274641922129    0.8753030745437740
     0.2632628566877244    0.4589298407876417    0.1213820860978346
     0.2626870809047127    0.4626292023055358    0.6252746700995576
     0.2449505210826153    0.9608764157604616    0.1277572819262040
     0.2536354820460212    0.9742783603493429    0.6170041342339161
     0.7505967943378548    0.4676548772211692    0.1354757805003238
     0.7660006728491054    0.4717253756731192    0.6273556676602438
     0.7718193146180035    0.9774397027392524    0.1231281413097388
     0.7697859336772525    0.9483698266169194    0.6244004961133683
     0.2468281548458380    0.0420697217232357    0.3708738522638744
     0.2229730317985785    0.0374225697798208    0.8866085597080937
     0.2491856036953022    0.5193059850101108    0.3808838598910063
     0.2407410076742957    0.5497033607006209    0.8753428878971133
     0.7420918581761686    0.0192366147332475    0.3720792824457501
     0.7465958425503586    0.0418954330870972    0.8767092468978005
     0.7355581172226399    0.5445959286489079    0.3699381224869047
     0.7314004247487400    0.5388882697920423    0.8792929571527215
     0.9961847112787474    0.0056399611292946    0.2506378020386397
     0.9954986944577308    0.9938702250778726    0.7487794200646182
     0.9917242802395202    0.5051825729386149    0.2484218348940829
     0.9959594374242884    0.5039352907826991    0.7517216212442311
     0.5065818107912100    0.9908620256759122    0.2482670643325703
     0.4991047315568966    0.9930170369317567    0.7508095757534450
     0.4935939408536152    0.4909792916634748    0.2490097504006494
     0.5020700545870836    0.4997451789715489    0.7508317879935781
     0.0052702080971227    0.0087912421248842    0.0086713096660007
     0.9921226130821140    0.9919720716318083    0.4900009634594719
     0.9943580750118018    0.4952355972524719    0.0001869848904191
     0.9998805456279266    0.4907368957562447    0.5012261325463329
     0.4949131027770509    0.9941349464088927    0.9999121575236963
     0.5162853964301115    0.0046960103711892    0.4999855328967300
     0.5012075707295911    0.4999338128004266    0.0075871851783382
     0.5021975531637918    0.5013036348687896    0.4924337967841834
     0.2458652658160878    0.2480846575480671    0.0020175334596370
     0.2532061921316816    0.2589124536544726    0.4988883112642998
     0.2451158589775247    0.7606494165885453    0.0013092476450786
     0.2504670644813058    0.7509864744682726    0.4979726739587238
     0.7610081824329801    0.2492278644014642    0.0065638819927556
     0.7543689093048710    0.2495582471116884    0.4975267059877521
     0.7531241032209928    0.7513838379783528    0.9958902319271681
     0.7457789724529205    0.7506898750686912    0.4940105246560820
     0.2550491801729398    0.2550184093445539    0.2401711684329743
     0.2489213813873533    0.2478342162817062    0.7563971024089177
     0.2371021213700436    0.7425454065025007    0.2461413364673879
     0.2548103210948029    0.7577899502345494    0.7536308995354219
     0.7637056504564979    0.2479538094192884    0.2472542166641712
     0.7504353034646547    0.2494210879338240    0.7511206626918510
     0.7450673190147504    0.7495095195772429    0.2492954342748630
     0.7616681314906704    0.7450043211772842    0.7561159018450986
     0.0992966859468070    0.1566132570916013    0.2686543362038223
     0.0879109032618054    0.1528607143173583    0.7612309778995252
     0.0952042666953945    0.6594790613680762    0.7695601591280166
     0.6086946595011576    0.1452033761935984    0.2674274656798282
     0.5941324456274037    0.1500485353039054    0.7728434654769252
     0.5887780094771375    0.6486165686291914    0.2664967802789162
     0.5972583233800411    0.6561541940884797    0.7716674757118853
     0.4060471869979853    0.3425802447129034    0.0235271655859755
     0.4074046962233472    0.8545081179534555    0.5181698131358390
     0.9076798625592134    0.8525661157652844    0.0213360060325669
     0.1563746022044582    0.4047330397366957    0.9766710729297843
     0.1524327171255208    0.9012547784689283    0.4710284717069493
     0.6583108571882403    0.4026434504261360    0.4751226420847249
     0.6569129790663811    0.4017017196410895    0.9904559389042521
     0.6503408754106679    0.8987888332191062    0.9701778691349302
     0.3528410540569349    0.0990115157541751    0.2264555028458215
     0.3475647086174121    0.0959380295491609    0.7278194604312109
     0.3383219226183578    0.5903240834436468    0.2315124578090506
     0.3461944013719407    0.5990725308945566    0.7328972787775992
     0.8398413260274233    0.0906752747996206    0.7295739074857587
     0.4066959119139055    0.3430730267662562    0.7348748555947271
     0.3959184486757440    0.8441507956964437    0.2331378102771904
     0.9092877524406133    0.3437988001747251    0.7285341885108447
     0.8992825460726394    0.8510996130745949    0.2287387772843015
     0.0998288895260709    0.1458261035728020    0.4806725059284104
     0.0966169434234868    0.6485480209030817    0.4809753324988286
     0.0914536716264546    0.6541717420706473    0.9823465231634197
     0.6029523224710299    0.1469839361498453    0.9863047680615613
     0.5928761370706209    0.6568952310104361    0.9810376950156263
     0.3460760781524221    0.0977805595380042    0.0290214382444825
     0.3576283278907730    0.1061782211649363    0.5126707225754988
     0.3437031633574281    0.6045148100194444    0.0179378971464223
     0.3494600943550714    0.5988328151808804    0.5199600617119082
     0.8392331948046373    0.0891449600570834    0.5177269782037385
     0.8417668909576963    0.5950001350711094    0.0260921163425888
     0.8473709034845699    0.5977925602022983    0.5125796462803884
     0.1502827078139839    0.4063814513583041    0.2653714102801482
     0.1548401261667678    0.4050062464061344    0.7735481618363704
     0.1485594931247057    0.9012189882615982    0.2714128038339221
     0.1617085534490831    0.9129756488664229    0.7677013670385424
     0.6510516015327602    0.3932169243574413    0.2714790042535562
     0.6600672196627586    0.4063829743708336    0.7683314542976907
     0.6588872010610844    0.8972427217989607    0.7743730828240500
     0.4640529162801489    0.4950409698025858    0.8787587658987547
     0.4698129680871692    0.0041276411511838    0.3746869576040230
     0.4457082042190682    0.0047569104539895    0.8753565363715469
     0.9582423084387129    0.5045686934060608    0.3743836182651036
     0.9497186729919014    0.4934827227322253    0.8753906208248974
     0.9729109256201119    0.0127076859141151    0.8789473868085158
     0.0244840947511890    0.9822247084947475    0.6200570173379540
     0.0409652573114565    0.4941567209732594    0.1242622382399540
     0.0397326655070266    0.5082187299271697    0.6254121342919271
     0.5481881550406568    0.9869429996972652    0.1235380669973301
     0.5511582734957733    0.0057108704338781    0.6263836292632198
     0.5367476408249896    0.4956978039670591    0.6213882760064678
     0.2859317104492560    0.2638787805210787    0.3699917693463268
     0.2901636064950883    0.7384652860774775    0.3717703294437004
     0.8045832388047979    0.2360952995097191    0.3729873237703360
     0.7907870598798198    0.2586684441824301    0.8784359597400838
     0.2140715181118019    0.2479874251797939    0.6259352254157685
     0.2127177323018528    0.7560970219762222    0.6267631068759767
     0.7130530956852347    0.2536686826870442    0.6240577406715800
     0.7067335267112590    0.7605410908413127    0.1229676837279200
     0.7222000166742180    0.7363859101730429    0.6250015388858079
     0.0879886677042972    0.6514474121112219    0.2642829335896759
     0.3982741408278989    0.3570455947928957    0.5142971104696868
     0.3951759665746079    0.8514043890679771    0.0192969470638092
     0.9064529068545923    0.3462474741230320    0.0200894191519724
     0.9031633465846214    0.3459947173770767    0.5181596633051009
     0.8954716987543209    0.8450183465296126    0.5081207155663821
     0.1502725724348795    0.3988784212994104    0.4836910490971525
     0.1488762023472981    0.9069433885733942    0.9903035051556696
     0.6549578460170703    0.8988579439380315    0.4802563019117927
     0.8524676858514653    0.1011683310038714    0.2283081861365888
     0.8449788346373257    0.6051620214615208    0.2311174324655275
     0.8489804279580294    0.5969685285056943    0.7324070666316631
     0.4036025924977870    0.3465384715753865    0.2214030137879660
     0.4064038029407675    0.8450565523276190    0.7328714195905769
     0.9011589223958069    0.3562610748537501    0.2305910371999090
     0.9063515418487200    0.8428224593901967    0.7375001558770414
     0.0976887102274577    0.1551417863984523    0.9888885330647094
     0.6063043283968453    0.1533939796603094    0.4794483281627272
     0.5992624359001775    0.6479083581780122    0.4781360876759052
     0.8577114010925150    0.1043768890232930    0.0212204854831609
     0.6489770619683271    0.8927421031130307    0.2717489096067322
     0.4638881033632926    0.4856231363492173    0.3717287394161178
     0.9566830864968612    0.9892671016705973    0.3704685061528347
     0.0338160416600410    0.0150081968892915    0.1291921323759750
     0.5327234394942941    0.5086273533884162    0.1286232056924556
     0.2769983500827568    0.2388938044920964    0.8786895377372301
     0.2736385741885285    0.7595146069291668    0.8788002018038997
     0.7760160148009652    0.7516453158757700    0.3725968792503038
     0.7980469946426691    0.7387722058854032    0.8758856347696954
     0.2065052675251670    0.2568781753544623    0.1218846563737594
     0.2110950330999221    0.7539188499909848    0.1234903505078007
     0.7255554487285947    0.2544671385197253    0.1268455682164939

  0.00000000E+00  0.00000000E+00  0.00000000E+00
  0.00000000E+00  0.00000000E+00  0.00000000E+00
  0.00000000E+00  0.00000000E+00  0.00000000E+00
  0.00000000E+00  0.00000000E+00  0.00000000E+00
  0.00000000E+00  0.00000000E+00  0.00000000E+00
  0.00000000E+00  0.00000000E+00  0.00000000E+00
  0.00000000E+00  0.00000000E+00  0.00000000E+00
  0.00000000E+00  0.00000000E+00  0.00000000E+00
  0.00000000E+00  0.00000000E+00  0.00000000E+00
  0.00000000E+00  0.00000000E+00  0.00000000E+00
  0.00000000E+00  0.00000000E+00  0.00000000E+00
  0.00000000E+00  0.00000000E+00  0.00000000E+00
  0.00000000E+00  0.00000000E+00  0.00000000E+00
  0.00000000E+00  0.00000000E+00  0.00000000E+00
  0.00000000E+00  0.00000000E+00  0.00000000E+00
  0.00000000E+00  0.00000000E+00  0.00000000E+00
  0.00000000E+00  0.00000000E+00  0.00000000E+00
  0.00000000E+00  0.00000000E+00  0.00000000E+00
  0.00000000E+00  0.00000000E+00  0.00000000E+00
  0.00000000E+00  0.00000000E+00  0.00000000E+00
  0.00000000E+00  0.00000000E+00  0.00000000E+00
  0.00000000E+00  0.00000000E+00  0.00000000E+00
  0.00000000E+00  0.00000000E+00  0.00000000E+00
  0.00000000E+00  0.00000000E+00  0.00000000E+00
  0.00000000E+00  0.00000000E+00  0.00000000E+00
  0.00000000E+00  0.00000000E+00  0.00000000E+00
  0.00000000E+00  0.00000000E+00  0.00000000E+00
  0.00000000E+00  0.00000000E+00  0.00000000E+00
  0.00000000E+00  0.00000000E+00  0.00000000E+00
  0.00000000E+00  0.00000000E+00  0.00000000E+00
  0.00000000E+00  0.00000000E+00  0.00000000E+00
  0.00000000E+00  0.00000000E+00  0.00000000E+00
  0.00000000E+00  0.00000000E+00  0.00000000E+00
  0.00000000E+00  0.00000000E+00  0.00000000E+00
  0.00000000E+00  0.00000000E+00  0.00000000E+00
  0.00000000E+00  0.00000000E+00  0.00000000E+00
  0.00000000E+00  0.00000000E+00  0.00000000E+00
  0.00000000E+00  0.00000000E+00  0.00000000E+00
  0.00000000E+00  0.00000000E+00  0.00000000E+00
  0.00000000E+00  0.00000000E+00  0.00000000E+00
  0.00000000E+00  0.00000000E+00  0.00000000E+00
  0.00000000E+00  0.00000000E+00  0.00000000E+00
  0.00000000E+00  0.00000000E+00  0.00000000E+00
  0.00000000E+00  0.00000000E+00  0.00000000E+00
  0.00000000E+00  0.00000000E+00  0.00000000E+00
  0.00000000E+00  0.00000000E+00  0.00000000E+00
  0.00000000E+00  0.00000000E+00  0.00000000E+00
  0.00000000E+00  0.00000000E+00  0.00000000E+00
  0.00000000E+00  0.00000000E+00  0.00000000E+00
  0.00000000E+00  0.00000000E+00  0.00000000E+00
  0.00000000E+00  0.00000000E+00  0.00000000E+00
  0.00000000E+00  0.00000000E+00  0.00000000E+00
  0.00000000E+00  0.00000000E+00  0.00000000E+00
  0.00000000E+00  0.00000000E+00  0.00000000E+00
  0.00000000E+00  0.00000000E+00  0.00000000E+00
  0.00000000E+00  0.00000000E+00  0.00000000E+00
  0.00000000E+00  0.00000000E+00  0.00000000E+00
  0.00000000E+00  0.00000000E+00  0.00000000E+00
  0.00000000E+00  0.00000000E+00  0.00000000E+00
  0.00000000E+00  0.00000000E+00  0.00000000E+00
  0.00000000E+00  0.00000000E+00  0.00000000E+00
  0.00000000E+00  0.00000000E+00  0.00000000E+00
  0.00000000E+00  0.00000000E+00  0.00000000E+00
  0.00000000E+00  0.00000000E+00  0.00000000E+00
  0.00000000E+00  0.00000000E+00  0.00000000E+00
  0.00000000E+00  0.00000000E+00  0.00000000E+00
  0.00000000E+00  0.00000000E+00  0.00000000E+00
  0.00000000E+00  0.00000000E+00  0.00000000E+00
  0.00000000E+00  0.00000000E+00  0.00000000E+00
  0.00000000E+00  0.00000000E+00  0.00000000E+00
  0.00000000E+00  0.00000000E+00  0.00000000E+00
  0.00000000E+00  0.00000000E+00  0.00000000E+00
  0.00000000E+00  0.00000000E+00  0.00000000E+00
  0.00000000E+00  0.00000000E+00  0.00000000E+00
  0.00000000E+00  0.00000000E+00  0.00000000E+00
  0.00000000E+00  0.00000000E+00  0.00000000E+00
  0.00000000E+00  0.00000000E+00  0.00000000E+00
  0.00000000E+00  0.00000000E+00  0.00000000E+00
  0.00000000E+00  0.00000000E+00  0.00000000E+00
  0.00000000E+00  0.00000000E+00  0.00000000E+00
  0.00000000E+00  0.00000000E+00  0.00000000E+00
  0.00000000E+00  0.00000000E+00  0.00000000E+00
  0.00000000E+00  0.00000000E+00  0.00000000E+00
  0.00000000E+00  0.00000000E+00  0.00000000E+00
  0.00000000E+00  0.00000000E+00  0.00000000E+00
  0.00000000E+00  0.00000000E+00  0.00000000E+00
  0.00000000E+00  0.00000000E+00  0.00000000E+00
  0.00000000E+00  0.00000000E+00  0.00000000E+00
  0.00000000E+00  0.00000000E+00  0.00000000E+00
  0.00000000E+00  0.00000000E+00  0.00000000E+00
  0.00000000E+00  0.00000000E+00  0.00000000E+00
  0.00000000E+00  0.00000000E+00  0.00000000E+00
  0.00000000E+00  0.00000000E+00  0.00000000E+00
  0.00000000E+00  0.00000000E+00  0.00000000E+00
  0.00000000E+00  0.00000000E+00  0.00000000E+00
  0.00000000E+00  0.00000000E+00  0.00000000E+00
  0.00000000E+00  0.00000000E+00  0.00000000E+00
  0.00000000E+00  0.00000000E+00  0.00000000E+00
  0.00000000E+00  0.00000000E+00  0.00000000E+00
  0.00000000E+00  0.00000000E+00  0.00000000E+00
  0.00000000E+00  0.00000000E+00  0.00000000E+00
  0.00000000E+00  0.00000000E+00  0.00000000E+00
  0.00000000E+00  0.00000000E+00  0.00000000E+00
  0.00000000E+00  0.00000000E+00  0.00000000E+00
  0.00000000E+00  0.00000000E+00  0.00000000E+00
  0.00000000E+00  0.00000000E+00  0.00000000E+00
  0.00000000E+00  0.00000000E+00  0.00000000E+00
  0.00000000E+00  0.00000000E+00  0.00000000E+00
  0.00000000E+00  0.00000000E+00  0.00000000E+00
  0.00000000E+00  0.00000000E+00  0.00000000E+00
  0.00000000E+00  0.00000000E+00  0.00000000E+00
  0.00000000E+00  0.00000000E+00  0.00000000E+00
  0.00000000E+00  0.00000000E+00  0.00000000E+00
  0.00000000E+00  0.00000000E+00  0.00000000E+00
  0.00000000E+00  0.00000000E+00  0.00000000E+00
  0.00000000E+00  0.00000000E+00  0.00000000E+00
  0.00000000E+00  0.00000000E+00  0.00000000E+00
  0.00000000E+00  0.00000000E+00  0.00000000E+00
  0.00000000E+00  0.00000000E+00  0.00000000E+00
  0.00000000E+00  0.00000000E+00  0.00000000E+00
  0.00000000E+00  0.00000000E+00  0.00000000E+00
  0.00000000E+00  0.00000000E+00  0.00000000E+00
  0.00000000E+00  0.00000000E+00  0.00000000E+00
  0.00000000E+00  0.00000000E+00  0.00000000E+00
  0.00000000E+00  0.00000000E+00  0.00000000E+00
  0.00000000E+00  0.00000000E+00  0.00000000E+00
  0.00000000E+00  0.00000000E+00  0.00000000E+00
  0.00000000E+00  0.00000000E+00  0.00000000E+00
  0.00000000E+00  0.00000000E+00  0.00000000E+00
  0.00000000E+00  0.00000000E+00  0.00000000E+00
  0.00000000E+00  0.00000000E+00  0.00000000E+00
  0.00000000E+00  0.00000000E+00  0.00000000E+00
  0.00000000E+00  0.00000000E+00  0.00000000E+00
  0.00000000E+00  0.00000000E+00  0.00000000E+00
  0.00000000E+00  0.00000000E+00  0.00000000E+00
  0.00000000E+00  0.00000000E+00  0.00000000E+00
  0.00000000E+00  0.00000000E+00  0.00000000E+00
  0.00000000E+00  0.00000000E+00  0.00000000E+00
  0.00000000E+00  0.00000000E+00  0.00000000E+00
  0.00000000E+00  0.00000000E+00  0.00000000E+00
  0.00000000E+00  0.00000000E+00  0.00000000E+00
  0.00000000E+00  0.00000000E+00  0.00000000E+00
  0.00000000E+00  0.00000000E+00  0.00000000E+00
  0.00000000E+00  0.00000000E+00  0.00000000E+00
  0.00000000E+00  0.00000000E+00  0.00000000E+00
  0.00000000E+00  0.00000000E+00  0.00000000E+00
  0.00000000E+00  0.00000000E+00  0.00000000E+00
  0.00000000E+00  0.00000000E+00  0.00000000E+00
  0.00000000E+00  0.00000000E+00  0.00000000E+00
  0.00000000E+00  0.00000000E+00  0.00000000E+00
  0.00000000E+00  0.00000000E+00  0.00000000E+00
  0.00000000E+00  0.00000000E+00  0.00000000E+00
  0.00000000E+00  0.00000000E+00  0.00000000E+00
  0.00000000E+00  0.00000000E+00  0.00000000E+00
  0.00000000E+00  0.00000000E+00  0.00000000E+00
  0.00000000E+00  0.00000000E+00  0.00000000E+00
  0.00000000E+00  0.00000000E+00  0.00000000E+00
  0.00000000E+00  0.00000000E+00  0.00000000E+00
  0.00000000E+00  0.00000000E+00  0.00000000E+00
  0.00000000E+00  0.00000000E+00  0.00000000E+00
